0 0 0 0 0 1 1 0 1 1 1 1 1 1 
0 61 49 34 78 56 73 75 60 50 47 55 72 54 
61 0 73 79 27 30 23 30 70 23 78 19 49 20 
49 73 0 51 32 67 55 71 21 65 75 63 23 63 
34 79 51 0 19 46 32 33 36 53 22 16 25 46 
78 27 32 19 0 39 45 33 37 72 21 57 65 66 
56 30 67 46 39 0 58 75 71 38 61 30 70 30 
73 23 55 32 45 58 0 40 52 27 19 63 18 71 
75 30 71 33 33 75 40 0 74 80 31 77 45 67 
60 70 21 36 37 71 52 74 0 50 32 19 70 77 
50 23 65 53 72 38 27 80 50 0 72 66 77 54 
47 78 75 22 21 61 19 31 32 72 0 61 27 43 
55 19 63 16 57 30 63 77 19 66 61 0 28 22 
72 49 23 25 65 70 18 45 70 77 27 28 0 33 
54 20 63 46 66 30 71 67 77 54 43 22 33 0 
2 50
1B 10P 7P 13P 3B 9P 12P 6P 14P 2B 8B 11P 5B 4B = 373